robust/generate/spp_dkp_Lefebvre_et_al_2026/src/shortest_path_5_5.kp
47
99

[0.7 6.03 4.51 2.17 4.38 4.95 3.99 2.57 4.37 1.53 1.58 0.15 0.61 1.86 3.97 1.99]

[32 49 89 93 55 67 24 99 33 64 94 84 10 60 44 30]
